NAME 
ROWS
 N  OBJ
 L  R0      
 E  R1      
 E  R2      
 E  R3      
 E  R4      
 E  R5      
 E  R6      
 E  R7      
 E  R8      
 E  R9      
 E  R10     
 E  R11     
 E  R12     
 E  R13     
 E  R14     
 E  R15     
 E  R16     
 E  R17     
 E  R18     
 E  R19     
 E  R20     
 E  R21     
 E  R22     
 E  R23     
 E  R24     
 E  R25     
COLUMNS
    MARKER    'MARKER'                 'INTORG'
    I0(11)    OBJ       -121
    I0(11)    R0        -170
    I0(11)    R2        11
    I0(11)    R3        1
    I0(11)    R4        13
    I0(11)    R5        5
    I0(11)    R6        10
    I0(11)    R7        18
    I0(11)    R8        19
    I0(11)    R9        16
    I0(11)    R10       4
    I0(11)    R25       1
    I1(8)     OBJ       68
    I1(8)     R0        -182
    I1(8)     R1        15
    I1(8)     R3        13
    I1(8)     R4        15
    I1(8)     R6        14
    I1(8)     R7        10
    I1(8)     R8        -1
    I1(8)     R25       1
    I2(9)     OBJ       -191
    I2(9)     R0        -28
    I2(9)     R1        16
    I2(9)     R3        7
    I2(9)     R5        5
    I2(9)     R6        6
    I2(9)     R8        19
    I2(9)     R9        7
    I2(9)     R10       3
    I2(9)     R25       1
    I3(9)     OBJ       -122
    I3(9)     R0        -45
    I3(9)     R1        3
    I3(9)     R2        2
    I3(9)     R3        7
    I3(9)     R5        7
    I3(9)     R6        10
    I3(9)     R7        12
    I3(9)     R9        -1
    I3(9)     R25       1
    I4(9)     OBJ       57
    I4(9)     R0        153
    I4(9)     R1        5
    I4(9)     R2        19
    I4(9)     R3        10
    I4(9)     R4        11
    I4(9)     R5        -1
    I4(9)     R6        7
    I4(9)     R9        10
    I4(9)     R25       1
    I5(11)    OBJ       -104
    I5(11)    R0        198
    I5(11)    R2        19
    I5(11)    R3        4
    I5(11)    R4        17
    I5(11)    R5        19
    I5(11)    R6        16
    I5(11)    R7        10
    I5(11)    R8        16
    I5(11)    R9        3
    I5(11)    R10       8
    I5(11)    R25       1
    I6(11)    OBJ       113
    I6(11)    R0        149
    I6(11)    R1        13
    I6(11)    R2        4
    I6(11)    R3        18
    I6(11)    R4        8
    I6(11)    R6        11
    I6(11)    R7        7
    I6(11)    R8        9
    I6(11)    R9        10
    I6(11)    R10       14
    I6(11)    R25       1
    I7(11)    OBJ       -105
    I7(11)    R0        60
    I7(11)    R2        -1
    I7(11)    R3        19
    I7(11)    R4        17
    I7(11)    R5        2
    I7(11)    R6        18
    I7(11)    R7        14
    I7(11)    R8        2
    I7(11)    R9        10
    I7(11)    R10       10
    I7(11)    R25       1
    I8(8)     OBJ       112
    I8(8)     R0        157
    I8(8)     R1        18
    I8(8)     R3        3
    I8(8)     R7        17
    I8(8)     R8        17
    I8(8)     R9        8
    I8(8)     R10       2
    I8(8)     R25       1
    I9(9)     OBJ       124
    I9(9)     R0        -143
    I9(9)     R1        15
    I9(9)     R2        13
    I9(9)     R3        9
    I9(9)     R4        1
    I9(9)     R6        6
    I9(9)     R8        1
    I9(9)     R10       7
    I9(9)     R25       1
    MARKER    'MARKER'                 'INTEND'
    C10(22)   OBJ       8
    C10(22)   R0        5
    C10(22)   R1        19
    C10(22)   R2        8
    C10(22)   R4        3
    C10(22)   R5        19
    C10(22)   R6        13
    C10(22)   R7        4
    C10(22)   R8        12
    C10(22)   R10       18
    C10(22)   R11       2
    C10(22)   R12       1
    C10(22)   R13       16
    C10(22)   R14       7
    C10(22)   R15       17
    C10(22)   R16       18
    C10(22)   R17       13
    C10(22)   R18       12
    C10(22)   R20       15
    C10(22)   R21       16
    C10(22)   R22       14
    C10(22)   R23       1
    C10(22)   R24       18
    C11(19)   OBJ       -10
    C11(19)   R0        -5
    C11(19)   R2        3
    C11(19)   R3        13
    C11(19)   R6        3
    C11(19)   R7        6
    C11(19)   R8        13
    C11(19)   R9        6
    C11(19)   R11       16
    C11(19)   R12       7
    C11(19)   R13       8
    C11(19)   R14       13
    C11(19)   R15       -1
    C11(19)   R16       9
    C11(19)   R17       14
    C11(19)   R18       12
    C11(19)   R19       2
    C11(19)   R20       19
    C11(19)   R21       6
    C11(19)   R22       -1
    C12(19)   R0        9
    C12(19)   R1        14
    C12(19)   R2        17
    C12(19)   R3        5
    C12(19)   R4        19
    C12(19)   R6        9
    C12(19)   R8        3
    C12(19)   R10       9
    C12(19)   R11       5
    C12(19)   R12       5
    C12(19)   R13       10
    C12(19)   R15       7
    C12(19)   R16       19
    C12(19)   R17       7
    C12(19)   R18       15
    C12(19)   R19       -1
    C12(19)   R21       17
    C12(19)   R22       6
    C12(19)   R23       11
    C13(18)   OBJ       -5
    C13(18)   R0        -8
    C13(18)   R2        16
    C13(18)   R3        10
    C13(18)   R4        15
    C13(18)   R5        12
    C13(18)   R6        18
    C13(18)   R7        17
    C13(18)   R8        5
    C13(18)   R9        5
    C13(18)   R10       1
    C13(18)   R12       4
    C13(18)   R13       10
    C13(18)   R15       13
    C13(18)   R16       16
    C13(18)   R17       4
    C13(18)   R19       12
    C13(18)   R20       3
    C13(18)   R24       19
    C14(18)   OBJ       -7
    C14(18)   R0        -8
    C14(18)   R1        9
    C14(18)   R2        18
    C14(18)   R3        3
    C14(18)   R6        7
    C14(18)   R7        4
    C14(18)   R9        8
    C14(18)   R10       4
    C14(18)   R11       3
    C14(18)   R12       6
    C14(18)   R14       11
    C14(18)   R16       1
    C14(18)   R17       1
    C14(18)   R18       13
    C14(18)   R19       2
    C14(18)   R20       17
    C14(18)   R23       14
    C14(18)   R24       8
    C15(21)   OBJ       -7
    C15(21)   R0        2
    C15(21)   R1        7
    C15(21)   R2        17
    C15(21)   R3        6
    C15(21)   R5        9
    C15(21)   R6        3
    C15(21)   R7        14
    C15(21)   R8        14
    C15(21)   R10       19
    C15(21)   R11       3
    C15(21)   R12       9
    C15(21)   R13       5
    C15(21)   R15       7
    C15(21)   R16       1
    C15(21)   R18       16
    C15(21)   R19       1
    C15(21)   R20       5
    C15(21)   R21       16
    C15(21)   R22       14
    C15(21)   R23       1
    C15(21)   R24       7
    C16(22)   OBJ       9
    C16(22)   R0        -3
    C16(22)   R1        17
    C16(22)   R2        5
    C16(22)   R3        14
    C16(22)   R4        19
    C16(22)   R6        7
    C16(22)   R7        18
    C16(22)   R8        10
    C16(22)   R9        17
    C16(22)   R10       -1
    C16(22)   R11       19
    C16(22)   R13       8
    C16(22)   R14       15
    C16(22)   R15       15
    C16(22)   R16       14
    C16(22)   R17       13
    C16(22)   R18       7
    C16(22)   R19       4
    C16(22)   R20       18
    C16(22)   R21       13
    C16(22)   R22       -1
    C16(22)   R23       17
    C17(21)   OBJ       6
    C17(21)   R0        -1
    C17(21)   R1        1
    C17(21)   R2        9
    C17(21)   R3        12
    C17(21)   R4        16
    C17(21)   R5        8
    C17(21)   R7        8
    C17(21)   R8        12
    C17(21)   R10       4
    C17(21)   R11       19
    C17(21)   R12       14
    C17(21)   R13       9
    C17(21)   R14       14
    C17(21)   R15       2
    C17(21)   R16       11
    C17(21)   R17       13
    C17(21)   R18       1
    C17(21)   R19       16
    C17(21)   R20       8
    C17(21)   R23       13
    C17(21)   R24       13
    C18(21)   OBJ       -10
    C18(21)   R0        -5
    C18(21)   R1        7
    C18(21)   R2        15
    C18(21)   R3        10
    C18(21)   R4        1
    C18(21)   R5        9
    C18(21)   R7        5
    C18(21)   R8        10
    C18(21)   R9        18
    C18(21)   R10       18
    C18(21)   R11       15
    C18(21)   R12       1
    C18(21)   R13       11
    C18(21)   R14       3
    C18(21)   R15       3
    C18(21)   R17       7
    C18(21)   R20       9
    C18(21)   R21       13
    C18(21)   R22       -1
    C18(21)   R23       5
    C18(21)   R24       11
    C19(21)   OBJ       -1
    C19(21)   R0        -2
    C19(21)   R2        15
    C19(21)   R3        6
    C19(21)   R4        6
    C19(21)   R5        1
    C19(21)   R6        5
    C19(21)   R8        5
    C19(21)   R9        19
    C19(21)   R10       7
    C19(21)   R11       -1
    C19(21)   R12       2
    C19(21)   R13       12
    C19(21)   R14       13
    C19(21)   R16       14
    C19(21)   R17       9
    C19(21)   R18       12
    C19(21)   R19       16
    C19(21)   R20       19
    C19(21)   R21       15
    C19(21)   R23       -1
    C19(21)   R24       17
    C20(23)   OBJ       -1
    C20(23)   R0        1
    C20(23)   R1        4
    C20(23)   R2        10
    C20(23)   R3        19
    C20(23)   R4        13
    C20(23)   R5        11
    C20(23)   R6        3
    C20(23)   R7        9
    C20(23)   R8        7
    C20(23)   R9        3
    C20(23)   R10       5
    C20(23)   R11       5
    C20(23)   R12       7
    C20(23)   R13       4
    C20(23)   R14       18
    C20(23)   R15       16
    C20(23)   R16       14
    C20(23)   R17       8
    C20(23)   R18       4
    C20(23)   R20       -1
    C20(23)   R21       9
    C20(23)   R23       18
    C20(23)   R24       15
    C21(19)   OBJ       4
    C21(19)   R0        -6
    C21(19)   R1        17
    C21(19)   R2        11
    C21(19)   R4        -1
    C21(19)   R5        3
    C21(19)   R6        6
    C21(19)   R7        11
    C21(19)   R9        19
    C21(19)   R10       8
    C21(19)   R12       1
    C21(19)   R13       -1
    C21(19)   R15       2
    C21(19)   R16       19
    C21(19)   R18       -1
    C21(19)   R19       19
    C21(19)   R20       3
    C21(19)   R21       7
    C21(19)   R22       4
    C21(19)   R23       -1
    C22(19)   OBJ       -10
    C22(19)   R0        5
    C22(19)   R1        12
    C22(19)   R2        18
    C22(19)   R3        4
    C22(19)   R4        19
    C22(19)   R5        16
    C22(19)   R8        19
    C22(19)   R9        1
    C22(19)   R10       9
    C22(19)   R12       16
    C22(19)   R15       13
    C22(19)   R16       11
    C22(19)   R17       7
    C22(19)   R18       16
    C22(19)   R20       5
    C22(19)   R21       4
    C22(19)   R22       16
    C22(19)   R23       16
    C22(19)   R24       2
    C23(23)   OBJ       3
    C23(23)   R0        6
    C23(23)   R1        15
    C23(23)   R2        3
    C23(23)   R3        8
    C23(23)   R4        16
    C23(23)   R5        -1
    C23(23)   R6        16
    C23(23)   R7        15
    C23(23)   R8        8
    C23(23)   R9        5
    C23(23)   R10       -1
    C23(23)   R11       7
    C23(23)   R12       6
    C23(23)   R13       13
    C23(23)   R14       14
    C23(23)   R15       13
    C23(23)   R16       12
    C23(23)   R17       2
    C23(23)   R18       -1
    C23(23)   R20       9
    C23(23)   R22       12
    C23(23)   R23       5
    C23(23)   R24       15
    C24(18)   OBJ       -10
    C24(18)   R0        5
    C24(18)   R1        4
    C24(18)   R2        8
    C24(18)   R3        12
    C24(18)   R4        9
    C24(18)   R5        12
    C24(18)   R7        7
    C24(18)   R8        17
    C24(18)   R9        19
    C24(18)   R10       7
    C24(18)   R12       16
    C24(18)   R13       5
    C24(18)   R14       9
    C24(18)   R17       8
    C24(18)   R18       2
    C24(18)   R19       17
    C24(18)   R23       19
    C24(18)   R24       1
    C25(1)    R1        1
    C26(1)    R2        1
    C27(1)    R3        1
    C28(1)    R4        1
    C29(1)    R5        1
    C30(1)    R6        1
    C31(1)    R7        1
    C32(1)    R8        1
    C33(1)    R9        1
    C34(1)    R10       1
    C35(1)    R11       1
    C36(1)    R12       1
    C37(1)    R13       1
    C38(1)    R14       1
    C39(1)    R15       1
    C40(1)    R16       1
    C41(1)    R17       1
    C42(1)    R18       1
    C43(1)    R19       1
    C44(1)    R20       1
    C45(1)    R21       1
    C46(1)    R22       1
    C47(1)    R23       1
    C48(1)    R24       1
    C49(1)    R25       1
RHS
    RHS1      R0        -1.2574532653556687e+02
    RHS1      R1        99
    RHS1      R2        64
    RHS1      R3        89
    RHS1      R4        56
    RHS1      R5        82
    RHS1      R6        94
    RHS1      R7        83
    RHS1      R8        56
    RHS1      R9        94
    RHS1      R10       64
    RHS1      R11       52
    RHS1      R12       80
    RHS1      R13       62
    RHS1      R14       56
    RHS1      R15       61
    RHS1      R16       78
    RHS1      R17       71
    RHS1      R18       68
    RHS1      R19       75
    RHS1      R20       50
    RHS1      R21       66
    RHS1      R22       97
    RHS1      R23       64
    RHS1      R24       96
    RHS1      R25       3
BOUNDS
 UP BND1      I0(11)    2
 UP BND1      I1(8)     2
 UP BND1      I2(9)     2
 UP BND1      I3(9)     2
 UP BND1      I4(9)     2
 UP BND1      I5(11)    2
 UP BND1      I6(11)    2
 UP BND1      I7(11)    2
 UP BND1      I8(8)     2
 UP BND1      I9(9)     2
ENDATA
